n=214;
k_min=7;
k_max=7;
M=[| 141, 166, 145, 126, 146, 126, 146
 | 138, 166, 150, 126, 151, 120, 145
 | 140, 164, 150, 126, 152, 121, 143
 | 142, 165, 148, 126, 149, 123, 143
 | 141, 164, 149, 126, 151, 123, 142
 | 142, 165, 149, 127, 150, 123, 141
 | 142, 164, 148, 126, 151, 123, 142
 | 142, 164, 148, 126, 151, 124, 142
 | 139, 166, 147, 127, 149, 121, 147
 | 143, 165, 147, 126, 150, 124, 142
 | 143, 164, 148, 127, 151, 123, 140
 | 144, 164, 146, 126, 149, 125, 141
 | 142, 164, 149, 126, 151, 123, 141
 | 144, 164, 147, 126, 151, 125, 141
 | 145, 163, 146, 126, 150, 126, 140
 | 144, 164, 147, 126, 151, 125, 141
 | 145, 163, 146, 126, 149, 127, 141
 | 142, 164, 143, 126, 145, 126, 150
 | 142, 166, 144, 124, 148, 125, 147
 | 143, 164, 147, 126, 149, 124, 142
 | 144, 165, 146, 126, 149, 125, 142
 | 143, 166, 143, 124, 147, 125, 149
 | 145, 164, 146, 126, 148, 126, 142
 | 145, 164, 146, 126, 149, 125, 141
 | 142, 164, 147, 125, 151, 124, 143
 | 144, 165, 146, 126, 150, 125, 142
 | 142, 165, 147, 126, 150, 123, 143
 | 144, 165, 147, 126, 150, 124, 141
 | 145, 163, 146, 126, 150, 126, 140
 | 143, 166, 146, 125, 150, 124, 142
 | 146, 163, 146, 126, 149, 126, 141
 | 145, 163, 146, 125, 150, 126, 141
 | 144, 164, 146, 126, 150, 125, 142
 | 146, 163, 146, 126, 150, 126, 140
 | 146, 164, 145, 126, 149, 126, 141
 | 143, 165, 146, 125, 150, 124, 143
 | 141, 166, 145, 126, 147, 124, 148
 | 145, 164, 146, 126, 149, 126, 141
 | 144, 163, 141, 125, 146, 129, 148
 | 144, 163, 141, 125, 146, 129, 148
 | 145, 164, 145, 126, 149, 126, 141
 | 145, 163, 146, 126, 150, 126, 141
 | 143, 165, 146, 125, 150, 124, 143
 | 144, 164, 141, 125, 145, 130, 147
 | 146, 163, 145, 126, 149, 127, 141
 | 143, 164, 144, 127, 147, 126, 146
 | 144, 164, 145, 125, 149, 126, 143
 | 145, 164, 140, 125, 145, 130, 148
 | 147, 164, 140, 124, 144, 132, 145
 | 143, 164, 144, 126, 148, 125, 147
 | 145, 166, 139, 124, 144, 132, 146
 | 145, 162, 144, 126, 148, 127, 144
 | 145, 164, 143, 124, 150, 126, 144
 | 146, 165, 143, 124, 150, 126, 143
 | 145, 166, 143, 124, 150, 126, 142
 | 149, 166, 142, 124, 150, 128, 138
 | 143, 164, 147, 126, 150, 124, 142
 | 144, 165, 147, 126, 150, 124, 141
 | 141, 163, 149, 126, 151, 122, 143
 | 141, 165, 148, 126, 150, 123, 144
 | 142, 166, 145, 124, 150, 125, 145
 | 140, 166, 145, 125, 146, 124, 149
 | 145, 163, 142, 126, 145, 130, 147
 | 144, 163, 141, 126, 144, 130, 149
 | 145, 163, 141, 125, 146, 130, 146
 | 144, 163, 142, 125, 147, 129, 147
 | 147, 166, 140, 124, 145, 131, 144
 | 147, 166, 140, 124, 145, 131, 143
 | 147, 166, 140, 124, 145, 131, 144
 | 147, 164, 139, 124, 144, 133, 145
 | 137, 166, 150, 127, 149, 118, 149
 | 140, 166, 147, 127, 147, 123, 146
 | 141, 165, 150, 127, 151, 122, 141
 | 140, 164, 150, 127, 151, 121, 143
 | 141, 165, 150, 127, 151, 122, 141
 | 141, 165, 149, 127, 151, 122, 141
 | 140, 165, 149, 127, 149, 121, 145
 | 142, 165, 149, 127, 150, 122, 142
 | 139, 165, 149, 126, 152, 121, 145
 | 142, 164, 149, 128, 150, 122, 141
 | 142, 163, 149, 129, 149, 123, 142
 | 141, 164, 150, 126, 152, 122, 142
 | 141, 164, 149, 127, 151, 122, 144
 | 141, 165, 149, 127, 150, 122, 142
 | 135, 166, 154, 131, 150, 115, 146
 | 141, 164, 148, 126, 150, 123, 144
 | 142, 163, 149, 126, 153, 123, 142
 | 140, 165, 149, 127, 150, 121, 144
 | 142, 165, 148, 126, 150, 123, 142
 | 143, 164, 148, 127, 150, 124, 140
 | 145, 163, 145, 127, 147, 127, 144
 | 143, 164, 147, 126, 151, 124, 141
 | 143, 166, 146, 124, 152, 124, 141
 | 142, 164, 148, 125, 152, 123, 142
 | 144, 164, 147, 126, 151, 124, 140
 | 142, 164, 146, 126, 148, 124, 145
 | 145, 162, 144, 127, 147, 128, 144
 | 148, 166, 143, 125, 149, 128, 138
 | 145, 166, 145, 126, 150, 124, 140
 | 145, 164, 145, 125, 150, 126, 142
 | 146, 166, 144, 124, 151, 126, 140
 | 149, 166, 141, 125, 147, 128, 139
 | 149, 166, 140, 122, 150, 131, 138
 | 148, 166, 133, 124, 142, 138, 146
 | 148, 166, 134, 123, 144, 134, 147
 | 156, 146, 128, 129, 146, 156, 136
 | 149, 146, 133, 134, 144, 149, 141
 | 152, 148, 129, 131, 142, 155, 139
 | 166, 149, 127, 122, 151, 140, 141
 | 156, 150, 133, 124, 152, 142, 139
 | 153, 145, 128, 127, 143, 165, 135
 | 152, 145, 128, 127, 143, 166, 135
 | 156, 148, 127, 126, 144, 158, 137
 | 141, 166, 148, 126, 149, 122, 144
 | 142, 166, 147, 126, 148, 124, 143
 | 141, 166, 148, 126, 148, 123, 144
 | 141, 166, 148, 127, 148, 123, 144
 | 138, 166, 150, 128, 148, 120, 146
 | 140, 166, 149, 127, 149, 121, 144
 | 139, 164, 149, 127, 150, 121, 145
 | 142, 166, 147, 126, 148, 123, 144
 | 142, 165, 149, 127, 150, 122, 141
 | 141, 164, 149, 126, 151, 122, 143
 | 140, 165, 149, 127, 150, 121, 144
 | 143, 165, 146, 126, 149, 124, 143
 | 143, 166, 146, 126, 148, 124, 143
 | 144, 165, 146, 126, 149, 125, 142
 | 149, 160, 138, 125, 149, 129, 147
 | 148, 159, 139, 125, 151, 128, 146
 | 154, 156, 132, 124, 151, 133, 146
 | 158, 154, 130, 123, 151, 138, 143
 | 159, 150, 126, 126, 145, 150, 140
 | 141, 165, 149, 127, 149, 123, 144
 | 140, 164, 148, 128, 147, 123, 147
 | 141, 164, 149, 126, 150, 123, 143
 | 142, 165, 147, 127, 148, 124, 144
 | 143, 164, 147, 126, 150, 125, 142
 | 142, 166, 148, 126, 150, 123, 141
 | 142, 166, 149, 126, 151, 122, 140
 | 142, 166, 149, 126, 151, 122, 141
 | 140, 166, 149, 127, 149, 121, 144
 | 142, 166, 147, 125, 150, 124, 143
 | 143, 164, 148, 126, 150, 124, 141
 | 142, 164, 148, 127, 150, 123, 142
 | 145, 163, 145, 125, 150, 126, 142
 | 144, 164, 146, 126, 148, 126, 143
 | 142, 165, 146, 124, 151, 125, 145
 | 142, 164, 148, 126, 150, 123, 144
 | 142, 165, 147, 126, 150, 124, 143
 | 146, 162, 146, 127, 148, 127, 140
 | 142, 164, 147, 127, 149, 123, 144
 | 144, 163, 142, 125, 145, 128, 149
 | 144, 163, 144, 124, 150, 127, 144
 | 142, 164, 147, 126, 151, 123, 144
 | 145, 164, 145, 126, 148, 126, 142
 | 144, 165, 146, 125, 150, 125, 142
 | 143, 164, 146, 126, 150, 124, 144
 | 144, 163, 141, 125, 145, 129, 148
 | 142, 165, 145, 127, 147, 124, 146
 | 142, 166, 145, 127, 147, 124, 146
 | 144, 164, 144, 126, 147, 126, 145
 | 143, 164, 144, 124, 150, 126, 145
 | 142, 166, 142, 126, 145, 126, 149
 | 135, 151, 152, 143, 145, 122, 149
 | 152, 159, 136, 125, 151, 134, 140
 | 162, 153, 131, 124, 146, 145, 136
 | 166, 151, 130, 124, 145, 147, 133
 | 157, 148, 130, 125, 152, 147, 137
 | 152, 150, 134, 129, 156, 138, 137
 | 159, 148, 129, 125, 154, 143, 139
 | 166, 148, 126, 123, 149, 146, 138
 | 137, 143, 143, 166, 141, 127, 140
 | 137, 143, 143, 165, 141, 127, 140
 | 165, 148, 126, 124, 148, 148, 138
 | 149, 157, 138, 128, 152, 131, 143
 | 158, 150, 130, 124, 153, 144, 138
 | 148, 163, 139, 122, 150, 128, 147
 | 149, 160, 139, 123, 150, 131, 145
 | 147, 166, 139, 122, 150, 124, 148
 | 148, 163, 140, 122, 151, 126, 146
 | 142, 153, 146, 125, 166, 123, 142
 | 155, 156, 133, 122, 155, 128, 147
 | 159, 151, 129, 123, 156, 137, 142
 | 161, 149, 130, 123, 152, 140, 141
 | 144, 147, 145, 134, 153, 129, 145
 | 133, 155, 166, 136, 148, 116, 143
 | 134, 156, 158, 138, 145, 118, 149
 | 143, 163, 145, 126, 149, 125, 145
 | 146, 155, 138, 131, 147, 127, 153
 | 142, 150, 140, 128, 149, 121, 166
 | 146, 158, 143, 124, 154, 125, 146
 | 149, 152, 138, 126, 162, 125, 145
 | 149, 151, 137, 126, 165, 127, 142
 | 147, 150, 139, 126, 164, 124, 147
 | 147, 150, 140, 126, 163, 125, 146
 | 149, 151, 136, 126, 166, 127, 142
 | 150, 150, 135, 125, 166, 129, 142
 | 149, 152, 137, 125, 162, 126, 145
 | 149, 151, 136, 126, 164, 126, 144
 | 149, 152, 138, 127, 161, 125, 146
 | 147, 151, 140, 127, 161, 124, 146
 | 148, 150, 141, 138, 148, 136, 136
 | 147, 151, 140, 128, 161, 126, 144
 | 146, 149, 140, 127, 164, 123, 147
 | 148, 152, 138, 126, 162, 125, 146
 | 147, 150, 138, 125, 166, 123, 148
 | 147, 150, 138, 124, 166, 123, 147
 | 139, 147, 149, 138, 153, 123, 147
 | 151, 151, 135, 125, 162, 128, 144
 | 148, 150, 136, 126, 166, 126, 145
 | 146, 150, 140, 126, 165, 123, 148
 | 146, 150, 140, 127, 162, 126, 146
 | 147, 150, 140, 127, 162, 126, 145
 | 147, 150, 140, 127, 162, 126, 145 |];
 P=[2, 2, 2, 2, 2, 2, 2, 2, 2, 2, 2, 2, 2, 2, 2, 2, 2, 2, 2, 2, 2, 2, 2, 2, 2, 2, 2, 2, 2, 2, 2, 2, 2, 2, 2, 2, 2, 2, 2, 2, 2, 2, 2, 2, 2, 2, 2, 2, 2, 2, 2, 2, 2, 2, 2, 2, 2, 2, 2, 2, 2, 2, 2, 2, 2, 2, 2, 2, 2, 2, 2, 2, 2, 2, 2, 2, 2, 2, 2, 2, 2, 2, 2, 2, 2, 2, 2, 2, 2, 2, 2, 2, 2, 2, 2, 2, 2, 2, 2, 2, 2, 2, 2, 2, 2, 6, 6, 6, 1, 1, 6, 6, 6, 2, 2, 2, 2, 2, 2, 2, 2, 2, 2, 2, 2, 2, 2, 2, 2, 2, 1, 6, 2, 2, 2, 2, 2, 2, 2, 2, 2, 2, 2, 2, 2, 2, 2, 2, 2, 2, 2, 2, 2, 2, 2, 2, 2, 2, 2, 2, 2, 2, 2, 3, 2, 1, 1, 1, 1, 1, 1, 4, 4, 1, 2, 1, 2, 2, 2, 2, 5, 5, 1, 1, 5, 3, 3, 2, 2, 7, 5, 5, 5, 5, 5, 5, 5, 5, 5, 5, 5, 1, 5, 5, 5, 5, 5, 5, 5, 5, 5, 5, 5, 5 ];